(set-info :smt-lib-version 2.6)
(set-logic QF_BV)
(set-info :source |
Ivan Jager <aij+nospam@andrew.cmu.edu>

|)
(set-info :category "industrial")
(set-info :status sat)
(declare-fun t_498 () (_ BitVec 1))
(declare-fun t_497 () (_ BitVec 1))
(declare-fun t_496 () (_ BitVec 1))
(declare-fun t_495 () (_ BitVec 1))
(declare-fun t_494 () (_ BitVec 1))
(declare-fun t_493 () (_ BitVec 1))
(declare-fun t_492 () (_ BitVec 1))
(declare-fun t_491 () (_ BitVec 1))
(declare-fun t_490 () (_ BitVec 1))
(declare-fun t_489 () (_ BitVec 1))
(declare-fun t_488 () (_ BitVec 1))
(declare-fun t_487 () (_ BitVec 1))
(declare-fun t_486 () (_ BitVec 1))
(declare-fun t_485 () (_ BitVec 1))
(declare-fun t_484 () (_ BitVec 1))
(declare-fun t_483 () (_ BitVec 1))
(declare-fun t_482 () (_ BitVec 1))
(declare-fun t_481 () (_ BitVec 1))
(declare-fun t_480 () (_ BitVec 1))
(declare-fun t_479 () (_ BitVec 1))
(declare-fun t_478 () (_ BitVec 1))
(declare-fun t_477 () (_ BitVec 1))
(declare-fun t_476 () (_ BitVec 1))
(declare-fun t_475 () (_ BitVec 1))
(declare-fun t_474 () (_ BitVec 1))
(declare-fun t_473 () (_ BitVec 1))
(declare-fun t_472 () (_ BitVec 1))
(declare-fun t_471 () (_ BitVec 1))
(declare-fun t_470 () (_ BitVec 1))
(declare-fun t_469 () (_ BitVec 1))
(declare-fun t_468 () (_ BitVec 1))
(declare-fun t_467 () (_ BitVec 1))
(declare-fun t_466 () (_ BitVec 1))
(declare-fun t_465 () (_ BitVec 1))
(declare-fun t_464 () (_ BitVec 1))
(declare-fun t_463 () (_ BitVec 1))
(declare-fun t_462 () (_ BitVec 1))
(declare-fun t_461 () (_ BitVec 1))
(declare-fun t_460 () (_ BitVec 1))
(declare-fun t_459 () (_ BitVec 1))
(declare-fun t_458 () (_ BitVec 1))
(declare-fun t_457 () (_ BitVec 1))
(declare-fun t_456 () (_ BitVec 1))
(declare-fun t_455 () (_ BitVec 1))
(declare-fun t_454 () (_ BitVec 1))
(declare-fun t_453 () (_ BitVec 1))
(declare-fun t_452 () (_ BitVec 1))
(declare-fun t_451 () (_ BitVec 1))
(declare-fun t_450 () (_ BitVec 1))
(declare-fun R_OF_15_213 () (_ BitVec 1))
(declare-fun T_32t0_3413_180 () (_ BitVec 32))
(declare-fun T_32t2_3421_174 () (_ BitVec 32))
(declare-fun R_ESP_1_69 () (_ BitVec 32))
(assert (let ((?v_1 (bvnot (_ bv0 1))) (?v_0 (bvnot R_OF_15_213))) (= (_ bv1 1) (bvand (bvand (bvand (bvand (bvand (bvand (bvand (bvand (bvand (bvand (bvand (bvand (bvand (bvand (bvand (bvand (bvand (bvand (bvand (bvand (bvand (bvand (bvand (bvand (bvand (bvand (bvand (bvand (bvand (bvand (bvand (bvand (bvand (bvand (bvand (bvand (bvand (bvand (bvand (bvand (bvand (bvand (bvand (bvand (bvand (bvand (bvand (bvand (bvand (ite (= t_498 (bvand t_497 (_ bv1 1))) (_ bv1 1) (_ bv0 1)) (ite (= t_497 (bvand t_470 (bvor (bvand t_471 (bvand t_494 (_ bv1 1))) (bvand t_495 (bvand t_496 (_ bv1 1)))))) (_ bv1 1) (_ bv0 1))) (ite (= t_496 (_ bv0 1)) (_ bv1 1) (_ bv0 1))) (ite (= t_495 ?v_1) (_ bv1 1) (_ bv0 1))) (ite (= t_494 (bvand t_493 (_ bv1 1))) (_ bv1 1) (_ bv0 1))) (ite (= t_493 (bvand t_492 (_ bv1 1))) (_ bv1 1) (_ bv0 1))) (ite (= t_492 (bvand t_491 (_ bv1 1))) (_ bv1 1) (_ bv0 1))) (ite (= t_491 (bvand t_490 (_ bv1 1))) (_ bv1 1) (_ bv0 1))) (ite (= t_490 (bvand t_489 (_ bv1 1))) (_ bv1 1) (_ bv0 1))) (ite (= t_489 (bvand t_488 (_ bv1 1))) (_ bv1 1) (_ bv0 1))) (ite (= t_488 (bvand t_487 (_ bv1 1))) (_ bv1 1) (_ bv0 1))) (ite (= t_487 (bvand t_486 (_ bv1 1))) (_ bv1 1) (_ bv0 1))) (ite (= t_486 (bvand t_485 (_ bv1 1))) (_ bv1 1) (_ bv0 1))) (ite (= t_485 (bvand t_484 (_ bv1 1))) (_ bv1 1) (_ bv0 1))) (ite (= t_484 (bvand t_483 (_ bv1 1))) (_ bv1 1) (_ bv0 1))) (ite (= t_483 (bvand t_482 (_ bv1 1))) (_ bv1 1) (_ bv0 1))) (ite (= t_482 (bvand t_481 (_ bv1 1))) (_ bv1 1) (_ bv0 1))) (ite (= t_481 (bvand t_480 (_ bv1 1))) (_ bv1 1) (_ bv0 1))) (ite (= t_480 (bvand t_479 (_ bv1 1))) (_ bv1 1) (_ bv0 1))) (ite (= t_479 (bvand t_478 (_ bv1 1))) (_ bv1 1) (_ bv0 1))) (ite (= t_478 (bvand t_477 (_ bv1 1))) (_ bv1 1) (_ bv0 1))) (ite (= t_477 (bvand t_476 (_ bv1 1))) (_ bv1 1) (_ bv0 1))) (ite (= t_476 (bvand t_475 (_ bv1 1))) (_ bv1 1) (_ bv0 1))) (ite (= t_475 (bvand t_474 (_ bv1 1))) (_ bv1 1) (_ bv0 1))) (ite (= t_474 (bvand t_473 (_ bv1 1))) (_ bv1 1) (_ bv0 1))) (ite (= t_473 (bvand t_472 (_ bv1 1))) (_ bv1 1) (_ bv0 1))) (ite (= t_472 (_ bv1 1)) (_ bv1 1) (_ bv0 1))) (ite (= t_471 (_ bv0 1)) (_ bv1 1) (_ bv0 1))) (ite (= t_470 (bvand t_469 (_ bv1 1))) (_ bv1 1) (_ bv0 1))) (ite (= t_469 (bvand t_468 (_ bv1 1))) (_ bv1 1) (_ bv0 1))) (ite (= t_468 (bvand t_466 (bvand t_467 (_ bv1 1)))) (_ bv1 1) (_ bv0 1))) (ite (= t_467 (_ bv1 1)) (_ bv1 1) (_ bv0 1))) (ite (= t_466 (bvand t_465 (_ bv1 1))) (_ bv1 1) (_ bv0 1))) (ite (= t_465 (bvand t_464 (_ bv1 1))) (_ bv1 1) (_ bv0 1))) (ite (= t_464 (bvand t_463 (_ bv1 1))) (_ bv1 1) (_ bv0 1))) (ite (= t_463 (bvand t_462 (_ bv1 1))) (_ bv1 1) (_ bv0 1))) (ite (= t_462 (bvand t_461 (_ bv1 1))) (_ bv1 1) (_ bv0 1))) (ite (= t_461 (bvand t_460 (_ bv1 1))) (_ bv1 1) (_ bv0 1))) (ite (= t_460 (bvand t_459 (_ bv1 1))) (_ bv1 1) (_ bv0 1))) (ite (= t_459 (bvand t_455 (bvand t_456 (bvand t_457 (bvand t_458 (_ bv1 1)))))) (_ bv1 1) (_ bv0 1))) (ite (= t_458 ?v_0) (_ bv1 1) (_ bv0 1))) (ite (= t_457 (ite (= R_OF_15_213 (ite (= (_ bv1 32) (bvand (_ bv1 32) (bvlshr (bvand (bvxor T_32t2_3421_174 (_ bv60 32)) (bvxor T_32t2_3421_174 T_32t0_3413_180)) (_ bv31 32)))) (_ bv1 1) (_ bv0 1))) (_ bv1 1) (_ bv0 1))) (_ bv1 1) (_ bv0 1))) (ite (= t_456 (ite (= T_32t0_3413_180 (bvsub T_32t2_3421_174 (_ bv60 32))) (_ bv1 1) (_ bv0 1))) (_ bv1 1) (_ bv0 1))) (ite (= t_455 (bvand t_454 (_ bv1 1))) (_ bv1 1) (_ bv0 1))) (ite (= t_454 (bvand t_452 (bvand t_453 (_ bv1 1)))) (_ bv1 1) (_ bv0 1))) (ite (= t_453 (ite (= T_32t2_3421_174 (bvsub R_ESP_1_69 (_ bv4 32))) (_ bv1 1) (_ bv0 1))) (_ bv1 1) (_ bv0 1))) (ite (= t_452 (bvand t_451 (_ bv1 1))) (_ bv1 1) (_ bv0 1))) (ite (= t_451 (bvand t_450 (_ bv1 1))) (_ bv1 1) (_ bv0 1))) (ite (= t_450 (_ bv1 1)) (_ bv1 1) (_ bv0 1))) (bvand (bvnot (bvor (bvor (bvand t_455 (bvand t_456 (bvand t_457 (bvnot ?v_0)))) (bvand t_466 (bvnot (_ bv1 1)))) (bvand t_470 (bvand t_495 ?v_1)))) (bvor (bvnot (bvand t_498 (_ bv1 1))) (_ bv1 1)))))))
(check-sat)
(exit)
